
GUB cover cuts applied:  3
Clique cuts applied:  3
Cover cuts applied:  7
Implied bound cuts applied:  7
Mixed integer rounding cuts applied:  13
Zero-half cuts applied:  3
Multi commodity flow cuts applied:  1
Gomory fractional cuts applied:  1

Root node processing (before b&c):
  Real time             =    0.06 sec. (28.41 ticks)
Parallel b&c, 4 threads:
  Real time             =    0.00 sec. (0.00 ticks)
  Sync time (average)   =    0.00 sec.
  Wait time (average)   =    0.00 sec.
                          ------------
Total (root+branch&cut) =    0.06 sec. (28.41 ticks)
Version identifier: 12.10.0.0 | 2019-11-26 | 843d4de
CPXPARAM_MIP_Interval                            10
CPXPARAM_MIP_Tolerances_AbsMIPGap                0.98999999999999999
Tried aggregator 2 times.
MIP Presolve eliminated 2090 rows and 964 columns.
MIP Presolve added 4 rows and 0 columns.
MIP Presolve modified 108 coefficients.
Aggregator did 11 substitutions.
Reduced MIP has 909 rows, 144 columns, and 2026 nonzeros.
Reduced MIP has 113 binaries, 31 generals, 0 SOSs, and 0 indicators.
Presolve time = 0.01 sec. (4.42 ticks)
Probing fixed 0 vars, tightened 4 bounds.
Probing time = 0.00 sec. (0.41 ticks)
Cover probing fixed 0 vars, tightened 20 bounds.
Tried aggregator 1 time.
Detecting symmetries...
MIP Presolve eliminated 640 rows and 0 columns.
MIP Presolve modified 20 coefficients.
Reduced MIP has 269 rows, 144 columns, and 746 nonzeros.
Reduced MIP has 113 binaries, 31 generals, 0 SOSs, and 0 indicators.
Presolve time = 0.00 sec. (0.92 ticks)
Probing fixed 0 vars, tightened 3 bounds.
Probing time = 0.00 sec. (0.16 ticks)
Cover probing fixed 0 vars, tightened 18 bounds.
Clique table members: 193.
MIP emphasis: balance optimality and feasibility.
MIP search method: dynamic search.
Parallel mode: deterministic, using up to 4 threads.
Root relaxation solution time = 0.00 sec. (1.09 ticks)

        Nodes                                         Cuts/
   Node  Left     Objective  IInf  Best Integer    Best Bound    ItCnt     Gap

      0     0       20.3549    53                     20.3549      127         
      0     0       20.2432    53                    Cuts: 86      192         
      0     0       20.1439    53                    Cuts: 79      279         
      0     0       20.1166    53                    Cuts: 36      309         
      0     0       20.0897    53                    Cuts: 51      336         
      0     0       20.0602    53                    Cuts: 36      367         
Detecting symmetries...
      0     0       20.0576    53                    Cuts: 25      383         
      0     0       20.0539    53                    Cuts: 21      395         
      0     0       20.0282    53                    Cuts: 23      421         
      0     0       20.0009    53                    Cuts: 23      471         
      0     0       19.9947    53                    Cuts: 26      495         
      0     0       19.9947    53                    Cuts: 27      507         
      0     0       19.9753    53                ZeroHalf: 13      547         
      0     0       19.9557    53                    Cuts: 62      588         
      0     0       19.9353    53                    Cuts: 29      608         
      0     0       19.9226    53                    Cuts: 37      640         
      0     0       19.9174    53                    Cuts: 42      669         
      0     0       19.8983    53                    Cuts: 42      704         
*     0+    0                           15.0000       19.8983            32.66%
      0     0       19.8625    53       15.0000      Cuts: 27      756   32.42%
      0     0       19.8471    53       15.0000      Cuts: 46      796   32.31%
*     0+    0                           18.0000       19.8471            10.26%
      0     0        cutoff             18.0000       18.0000      832    0.00%
Elapsed time = 0.18 sec. (98.87 ticks, tree = 0.01 MB, solutions = 2)
the number of Nodes = 0
